db/inputs/3254530595210672779627027227941954530308.smt2
(set-logic QF_FP)
(declare-const x0 (_ FloatingPoint 8 24))
(declare-const x1 (_ FloatingPoint 8 24))
(declare-const x2 (_ FloatingPoint 8 24))
(declare-const x3 (_ FloatingPoint 8 24))
(declare-const x4 (_ FloatingPoint 8 24))
(declare-const x5 (_ FloatingPoint 8 24))
(declare-const x6 (_ FloatingPoint 8 24))
(declare-const x7 (_ FloatingPoint 8 24))
(declare-const x8 (_ FloatingPoint 8 24))
(declare-const x9 (_ FloatingPoint 8 24))
(assert (fp.eq (fp.neg (fp.div RNE (fp.add RNE (fp.neg x0) (fp.mul RNE x4 x6)) (fp.add RNE (fp.sub RNE x2 x2) (fp.neg x0)))) (fp.sub RNE (fp.neg (fp.sub RNE (fp.sub RNE x6 x9) (fp.mul RNE x0 x6))) (fp.mul RNE (fp.mul RNE (fp.sub RNE x9 x1) (fp.add RNE x1 x2)) (fp.mul RNE (fp.neg x0) (fp.add RNE x3 x8))))))
(assert (fp.leq (fp.sub RNE (fp.mul RNE (fp.div RNE (fp.add RNE x2 x4) (fp.div RNE x2 x4)) (fp.add RNE (fp.div RNE x0 x8) (fp.add RNE x0 x5))) (fp.div RNE (fp.div RNE (fp.neg x3) (fp.add RNE x7 x1)) (fp.add RNE (fp.add RNE x2 x0) (fp.neg x5)))) (fp.mul RNE (fp.add RNE (fp.div RNE (fp.sub RNE x0 x6) (fp.div RNE x7 x5)) (fp.neg (fp.neg x0))) (fp.add RNE (fp.div RNE (fp.sub RNE x1 x5) (fp.mul RNE x0 x5)) (fp.mul RNE (fp.div RNE x8 x6) (fp.div RNE x2 x7))))))
(assert (fp.leq (fp.add RNE (fp.div RNE (fp.mul RNE (fp.div RNE x6 x0) (fp.mul RNE x7 x1)) (fp.div RNE (fp.mul RNE x1 x3) (fp.sub RNE x5 x5))) (fp.sub RNE (fp.neg (fp.mul RNE x1 x8)) (fp.div RNE (fp.sub RNE x4 x9) (fp.sub RNE x6 x9)))) (fp.mul RNE (fp.neg (fp.mul RNE (fp.sub RNE x1 x4) (fp.add RNE x2 x3))) (fp.div RNE (fp.sub RNE (fp.sub RNE x2 x3) (fp.add RNE x2 x1)) (fp.sub RNE (fp.sub RNE x3 x6) (fp.mul RNE x7 x5))))))
(assert (fp.geq (fp.div RNE (fp.mul RNE (fp.div RNE (fp.add RNE x7 x5) (fp.mul RNE x9 x1)) (fp.add RNE (fp.div RNE x1 x4) (fp.div RNE x4 x3))) (fp.sub RNE (fp.add RNE (fp.sub RNE x0 x2) (fp.sub RNE x3 x6)) (fp.add RNE (fp.sub RNE x4 x9) (fp.mul RNE x8 x3)))) (fp.div RNE (fp.add RNE (fp.add RNE (fp.neg x8) (fp.neg x0)) (fp.sub RNE (fp.sub RNE x2 x5) (fp.neg x8))) (fp.add RNE (fp.sub RNE (fp.neg x0) (fp.sub RNE x0 x9)) (fp.div RNE (fp.neg x7) (fp.div RNE x5 x9))))))
(check-sat)
