db/data/3254530595210672779627027227941954530308.z3.out
-------------------
2500.134585583
